50 8
699 200
579 701
733 930
400 763
281 55
248 842
341 232
444 235
765 673
870 560
372 819
415 388
217 642
592 787
393 322
640 799
394 515
411 758
700 963
209 287
842 694
388 875
339 74
235 670
410 891
267 470
457 387
760 217
705 197
415 265
78 370
455 199
401 543
58 624
269 844
242 526
408 849
597 326
183 654
837 653
349 72
667 763
221 522
370 49
182 235
600 879
413 236
270 739
341 51
475 850
